data;

set A := 561 771 279 952 853 341 462 675 402 744 912 237 746 708 498 547 883 926 106 689 403 370 224 613 956 873 118 176 177 164 280 756 23 934 68 950 501 717 691 181 955 478 121 430 714 281 660 882 245 314 476 438 208 678 419 273 546 148 845 971 879 88 560 225 775 398 656 849 869 712 592 654 817 619 496 587 116 301 487 633 928 209 509 894;
param T := 21000;

end;
